548688
548688
548688
548688
548688
548688
548138
541954
541954
541954
541954
541954
541954
539368
529049
529049
529049
529049
529049
529049
529049
529049
528632
528416
527537
524608
524608
524533
522093
522093
522093
522093
522093
522093
515058
515058
515058
515058
515058
515058
515058
512032
512032
512032
512032
512032
512032
512032
512032
512032
512032
512032
512032
512032
512032
512032
512032
512032
512032
510152
510152
510152
510152
510152
510152
510152
510152
510152
510152
510152
510152
510152
510152
510152
510152
510152
510152
510152
510152
510152
510152
510152
510152
510152
510152
510152
510152
510152
510152
510152
510152
510152
510152
510152
510152
510152
510152
510152
510152
510152
